(set-info :smt-lib-version 2.6)
(set-logic NIA)
(set-info :source "|
Generated by the tool Ultimate Automizer [1,2] which implements
an automata theoretic approach [3] to software verification.

This SMT script belongs to a set of SMT scripts that was generated by
applying Ultimate Automizer to benchmarks [4] from the SV-COMP 2019 [5,6].
This script might _not_ contain all SMT commands that are used by
Ultimate Automizer. In order to satisfy the restrictions of
the SMT-COMP we have to drop e.g., the commands for getting
values (resp. models), unsatisfiable cores and interpolants.

2019-04-27, Matthias Heizmann (heizmann@informatik.uni-freiburg.de)

[1] https://ultimate.informatik.uni-freiburg.de/automizer/
[2] Matthias Heizmann, Yu-Fang Chen, Daniel Dietsch, Marius Greitschus,
     Jochen Hoenicke, Yong Li, Alexander Nutz, Betim Musa, Christian
     Schilling, Tanja Schindler, Andreas Podelski: Ultimate Automizer
     and the Search for Perfect Interpolants - (Competition Contribution).
     TACAS (2) 2018: 447-451
[3] Matthias Heizmann, Jochen Hoenicke, Andreas Podelski: Software Model
     Checking for People Who Love Automata. CAV 2013:36-52
[4] https://github.com/sosy-lab/sv-benchmarks
[5] Dirk Beyer: Automatic Verification of C and Java Programs: SV-COMP 2019.
     TACAS (3) 2019: 133-155
[6] https://sv-comp.sosy-lab.org/2019/
|")
(set-info :license "https://creativecommons.org/licenses/by/4.0/")
(set-info :category "industrial")
(set-info :status unknown)
(declare-fun gcd_test_~b () Int)
(declare-fun |gcd_test_#in~b| () Int)
(assert (not (exists ((v_gcd_test_~b_30 Int) (v_gcd_test_~a_21 Int)) (let ((.cse1 (mod v_gcd_test_~a_21 v_gcd_test_~b_30))) (let ((.cse0 (mod (+ .cse1 (* 255 v_gcd_test_~b_30)) 256))) (and (<= .cse0 127) (<= gcd_test_~b .cse0) (<= (mod .cse1 256) 127) (<= 0 v_gcd_test_~b_30) (<= v_gcd_test_~b_30 |gcd_test_#in~b|) (< v_gcd_test_~a_21 0) (not (= 0 v_gcd_test_~b_30)) (not (= .cse1 0)) (<= 0 v_gcd_test_~a_21)))))))
(assert (not (exists ((v_gcd_test_~b_30 Int) (v_gcd_test_~a_21 Int)) (let ((.cse0 (mod v_gcd_test_~a_21 v_gcd_test_~b_30))) (let ((.cse1 (mod .cse0 256))) (and (<= (mod (+ .cse0 v_gcd_test_~b_30) 256) 127) (< 127 .cse1) (< v_gcd_test_~b_30 0) (<= (+ gcd_test_~b 256) .cse1) (<= 0 v_gcd_test_~b_30) (<= v_gcd_test_~b_30 |gcd_test_#in~b|) (= .cse0 0) (not (= 0 v_gcd_test_~b_30)) (<= 0 v_gcd_test_~a_21)))))))
(assert (not (exists ((v_gcd_test_~b_30 Int) (v_gcd_test_~a_21 Int)) (let ((.cse0 (mod v_gcd_test_~a_21 v_gcd_test_~b_30))) (let ((.cse1 (mod .cse0 256))) (and (<= (mod (+ .cse0 v_gcd_test_~b_30) 256) 127) (< v_gcd_test_~b_30 0) (<= .cse1 127) (<= 0 v_gcd_test_~b_30) (<= v_gcd_test_~b_30 |gcd_test_#in~b|) (<= gcd_test_~b .cse1) (not (= 0 v_gcd_test_~b_30)) (<= 0 v_gcd_test_~a_21)))))))
(assert (not (exists ((v_gcd_test_~b_30 Int) (v_gcd_test_~a_21 Int)) (let ((.cse1 (mod v_gcd_test_~a_21 v_gcd_test_~b_30))) (let ((.cse0 (mod .cse1 256))) (and (< 127 .cse0) (<= (mod (+ .cse1 (* 255 v_gcd_test_~b_30)) 256) 127) (<= (+ gcd_test_~b 256) .cse0) (<= 0 v_gcd_test_~b_30) (<= v_gcd_test_~b_30 |gcd_test_#in~b|) (= .cse1 0) (not (= 0 v_gcd_test_~b_30)) (<= 0 v_gcd_test_~a_21)))))))
(assert (not (exists ((v_gcd_test_~b_30 Int) (v_gcd_test_~a_21 Int)) (let ((.cse1 (mod v_gcd_test_~a_21 v_gcd_test_~b_30))) (let ((.cse0 (mod (+ .cse1 v_gcd_test_~b_30) 256))) (and (< 127 .cse0) (< v_gcd_test_~b_30 0) (<= (mod .cse1 256) 127) (<= 0 v_gcd_test_~b_30) (<= v_gcd_test_~b_30 |gcd_test_#in~b|) (< v_gcd_test_~a_21 0) (not (= 0 v_gcd_test_~b_30)) (<= (+ gcd_test_~b 256) .cse0) (not (= .cse1 0)) (<= 0 v_gcd_test_~a_21)))))))
(assert (not (exists ((v_gcd_test_~b_30 Int) (v_gcd_test_~a_21 Int)) (let ((.cse1 (mod v_gcd_test_~a_21 v_gcd_test_~b_30))) (let ((.cse0 (mod (+ .cse1 v_gcd_test_~b_30) 256))) (and (<= .cse0 127) (< 127 (mod .cse1 256)) (< v_gcd_test_~b_30 0) (<= 0 v_gcd_test_~b_30) (<= v_gcd_test_~b_30 |gcd_test_#in~b|) (<= gcd_test_~b .cse0) (< v_gcd_test_~a_21 0) (not (= 0 v_gcd_test_~b_30)) (not (= .cse1 0)) (<= 0 v_gcd_test_~a_21)))))))
(assert (not (exists ((v_gcd_test_~b_30 Int) (v_gcd_test_~a_21 Int)) (let ((.cse0 (mod v_gcd_test_~a_21 v_gcd_test_~b_30))) (let ((.cse1 (mod (+ .cse0 (* 255 v_gcd_test_~b_30)) 256))) (and (< 127 (mod .cse0 256)) (<= .cse1 127) (<= gcd_test_~b .cse1) (<= 0 v_gcd_test_~b_30) (<= v_gcd_test_~b_30 |gcd_test_#in~b|) (< v_gcd_test_~a_21 0) (not (= 0 v_gcd_test_~b_30)) (not (= .cse0 0)) (<= 0 v_gcd_test_~a_21)))))))
(assert (not (exists ((v_gcd_test_~b_30 Int) (v_gcd_test_~a_21 Int)) (let ((.cse1 (mod v_gcd_test_~a_21 v_gcd_test_~b_30))) (let ((.cse0 (mod .cse1 256))) (and (< 127 .cse0) (< 127 (mod (+ .cse1 v_gcd_test_~b_30) 256)) (< v_gcd_test_~b_30 0) (<= (+ gcd_test_~b 256) .cse0) (<= 0 v_gcd_test_~b_30) (<= v_gcd_test_~b_30 |gcd_test_#in~b|) (not (= 0 v_gcd_test_~b_30)) (<= 0 v_gcd_test_~a_21)))))))
(assert (not (exists ((v_gcd_test_~b_30 Int) (v_gcd_test_~a_21 Int)) (let ((.cse1 (mod v_gcd_test_~a_21 v_gcd_test_~b_30))) (let ((.cse0 (mod .cse1 256))) (and (< 127 .cse0) (<= (mod (+ .cse1 (* 255 v_gcd_test_~b_30)) 256) 127) (<= (+ gcd_test_~b 256) .cse0) (<= 0 v_gcd_test_~b_30) (<= v_gcd_test_~b_30 |gcd_test_#in~b|) (not (= 0 v_gcd_test_~b_30)) (<= 0 v_gcd_test_~a_21)))))))
(assert (not (exists ((v_gcd_test_~b_30 Int) (v_gcd_test_~a_21 Int)) (let ((.cse1 (mod v_gcd_test_~a_21 v_gcd_test_~b_30))) (let ((.cse0 (mod (+ .cse1 (* 255 v_gcd_test_~b_30)) 256))) (and (< 127 .cse0) (<= (mod .cse1 256) 127) (<= 0 v_gcd_test_~b_30) (<= v_gcd_test_~b_30 |gcd_test_#in~b|) (<= (+ gcd_test_~b 256) .cse0) (< v_gcd_test_~a_21 0) (not (= 0 v_gcd_test_~b_30)) (not (= .cse1 0)) (<= 0 v_gcd_test_~a_21)))))))
(assert (not (exists ((v_gcd_test_~b_30 Int) (v_gcd_test_~a_21 Int)) (let ((.cse0 (mod v_gcd_test_~a_21 v_gcd_test_~b_30))) (let ((.cse1 (mod .cse0 256))) (and (<= (mod (+ .cse0 (* 255 v_gcd_test_~b_30)) 256) 127) (<= .cse1 127) (<= 0 v_gcd_test_~b_30) (<= v_gcd_test_~b_30 |gcd_test_#in~b|) (<= gcd_test_~b .cse1) (= .cse0 0) (not (= 0 v_gcd_test_~b_30)) (<= 0 v_gcd_test_~a_21)))))))
(assert (not (exists ((v_gcd_test_~b_30 Int) (v_gcd_test_~a_21 Int)) (let ((.cse0 (mod v_gcd_test_~a_21 v_gcd_test_~b_30))) (let ((.cse1 (mod .cse0 256))) (and (< 127 (mod (+ .cse0 (* 255 v_gcd_test_~b_30)) 256)) (<= .cse1 127) (<= 0 v_gcd_test_~b_30) (<= v_gcd_test_~b_30 |gcd_test_#in~b|) (<= gcd_test_~b .cse1) (not (= 0 v_gcd_test_~b_30)) (<= 0 v_gcd_test_~a_21)))))))
(assert (not (exists ((v_gcd_test_~b_30 Int) (v_gcd_test_~a_21 Int)) (let ((.cse1 (mod v_gcd_test_~a_21 v_gcd_test_~b_30))) (let ((.cse0 (mod .cse1 256))) (and (< 127 .cse0) (< 127 (mod (+ .cse1 (* 255 v_gcd_test_~b_30)) 256)) (<= (+ gcd_test_~b 256) .cse0) (<= 0 v_gcd_test_~b_30) (<= v_gcd_test_~b_30 |gcd_test_#in~b|) (= .cse1 0) (not (= 0 v_gcd_test_~b_30)) (<= 0 v_gcd_test_~a_21)))))))
(assert (not (exists ((v_gcd_test_~b_30 Int) (v_gcd_test_~a_21 Int)) (let ((.cse0 (mod v_gcd_test_~a_21 v_gcd_test_~b_30))) (let ((.cse1 (mod .cse0 256))) (and (<= (mod (+ .cse0 v_gcd_test_~b_30) 256) 127) (< v_gcd_test_~b_30 0) (<= .cse1 127) (<= 0 v_gcd_test_~b_30) (<= v_gcd_test_~b_30 |gcd_test_#in~b|) (<= gcd_test_~b .cse1) (= .cse0 0) (not (= 0 v_gcd_test_~b_30)) (<= 0 v_gcd_test_~a_21)))))))
(assert (not (exists ((v_gcd_test_~b_30 Int) (v_gcd_test_~a_21 Int)) (let ((.cse0 (mod v_gcd_test_~a_21 v_gcd_test_~b_30))) (let ((.cse1 (mod .cse0 256))) (and (< 127 (mod (+ .cse0 v_gcd_test_~b_30) 256)) (< v_gcd_test_~b_30 0) (<= .cse1 127) (<= 0 v_gcd_test_~b_30) (<= v_gcd_test_~b_30 |gcd_test_#in~b|) (<= gcd_test_~b .cse1) (not (= 0 v_gcd_test_~b_30)) (<= 0 v_gcd_test_~a_21)))))))
(assert (not (exists ((v_gcd_test_~b_30 Int) (v_gcd_test_~a_21 Int)) (let ((.cse0 (mod v_gcd_test_~a_21 v_gcd_test_~b_30))) (let ((.cse1 (mod .cse0 256))) (and (< 127 (mod (+ .cse0 (* 255 v_gcd_test_~b_30)) 256)) (<= .cse1 127) (<= 0 v_gcd_test_~b_30) (<= v_gcd_test_~b_30 |gcd_test_#in~b|) (<= gcd_test_~b .cse1) (= .cse0 0) (not (= 0 v_gcd_test_~b_30)) (<= 0 v_gcd_test_~a_21)))))))
(assert (not (exists ((v_gcd_test_~b_30 Int) (v_gcd_test_~a_21 Int)) (let ((.cse0 (mod v_gcd_test_~a_21 v_gcd_test_~b_30))) (let ((.cse1 (mod .cse0 256))) (and (< 127 (mod (+ .cse0 v_gcd_test_~b_30) 256)) (< v_gcd_test_~b_30 0) (<= .cse1 127) (<= 0 v_gcd_test_~b_30) (<= v_gcd_test_~b_30 |gcd_test_#in~b|) (<= gcd_test_~b .cse1) (= .cse0 0) (not (= 0 v_gcd_test_~b_30)) (<= 0 v_gcd_test_~a_21)))))))
(assert (not (exists ((v_gcd_test_~b_30 Int) (v_gcd_test_~a_21 Int)) (let ((.cse1 (mod v_gcd_test_~a_21 v_gcd_test_~b_30))) (let ((.cse0 (mod .cse1 256))) (and (< 127 .cse0) (< 127 (mod (+ .cse1 v_gcd_test_~b_30) 256)) (< v_gcd_test_~b_30 0) (<= (+ gcd_test_~b 256) .cse0) (<= 0 v_gcd_test_~b_30) (<= v_gcd_test_~b_30 |gcd_test_#in~b|) (= .cse1 0) (not (= 0 v_gcd_test_~b_30)) (<= 0 v_gcd_test_~a_21)))))))
(assert (exists ((v_gcd_test_~b_30 Int) (v_gcd_test_~a_21 Int)) (let ((.cse0 (mod v_gcd_test_~a_21 v_gcd_test_~b_30))) (let ((.cse1 (mod .cse0 256))) (and (<= (mod (+ .cse0 (* 255 v_gcd_test_~b_30)) 256) 127) (<= .cse1 127) (<= 0 v_gcd_test_~b_30) (<= v_gcd_test_~b_30 |gcd_test_#in~b|) (<= gcd_test_~b .cse1) (not (= 0 v_gcd_test_~b_30)) (<= 0 v_gcd_test_~a_21))))))
(check-sat)
(exit)
